p edge 27 39
e 1 15
e 2 26
e 3 18
e 3 27
e 3 15
e 4 17
e 4 7
e 4 6
e 5 20
e 5 18
e 6 8
e 6 16
e 6 27
e 6 14
e 7 11
e 7 22
e 7 21
e 7 19
e 9 23
e 9 15
e 9 12
e 10 16
e 10 19
e 11 17
e 12 23
e 12 15
e 13 20
e 13 25
e 13 22
e 14 18
e 15 27
e 15 23
e 16 19
e 16 27
e 16 24
e 17 25
e 18 22
e 20 25
e 24 27
